
Gurobi 12.0.2 (win64) logging started Fri Jun  6 14:25:13 2025

Set parameter LogFile to value "C:\Ioana\_uni\honours\slp\algorithm\Main_files\results\others\prox_tubules_new\Task_001_Sample001_irr_gurobi.log"
Gurobi Optimizer version 12.0.2 build v12.0.2rc0 (win64 - Windows 11.0 (26100.2))

CPU model: Intel(R) Core(TM) Ultra 5 125H, instruction set [SSE2|AVX|AVX2]
Thread count: 14 physical cores, 18 logical processors, using up to 18 threads

Non-default parameters:
TimeLimit  2200

Optimize a model with 47658 rows, 34797 columns and 147844 nonzeros
Model fingerprint: 0x26fe682f
Variable types: 17403 continuous, 17394 integer (17394 binary)
Coefficient statistics:
  Matrix range     [1e-04, 8e+04]
  Objective range  [1e-04, 1e+01]
  Bounds range     [1e+00, 1e+03]
  RHS range        [1e+00, 1e+00]
Presolve removed 31250 rows and 21838 columns
Presolve time: 0.35s
Presolved: 16408 rows, 12959 columns, 54593 nonzeros
Variable types: 6413 continuous, 6546 integer (6546 binary)

Root relaxation: objective 9.678752e-05, 465 iterations, 0.03 seconds (0.03 work units)

    Nodes    |    Current Node    |     Objective Bounds      |     Work
 Expl Unexpl |  Obj  Depth IntInf | Incumbent    BestBd   Gap | It/Node Time

     0     0    0.00010    0   11          -    0.00010      -     -    0s
H    0     0                       0.0720364    0.00010   100%     -    0s
H    0     0                       0.0686807    0.00010   100%     -    0s
     0     0    0.03748    0   15    0.06868    0.03748  45.4%     -    0s

Explored 1 nodes (1034 simplex iterations) in 0.66 seconds (0.65 work units)
Thread count was 18 (of 18 available processors)

Solution count 2: 0.0686807 0.0720364 

Optimal solution found (tolerance 1.00e-04)
Best objective 6.868066589425e-02, best bound 6.868066589425e-02, gap 0.0000%
